Gurobi Optimizer version 9.1.2 build v9.1.2rc0 (linux64)
Thread count: 36 physical cores, 72 logical processors, using up to 32 threads
Optimize a model with 12 rows, 57 columns and 590 nonzeros
Model fingerprint: 0xf32eec78
Model has 47 quadratic constraints
Coefficient statistics:
  Matrix range     [2e-05, 3e+00]
  QMatrix range    [1e+00, 1e+00]
  QLMatrix range   [1e+00, 1e+00]
  Objective range  [8e-03, 7e-01]
  Bounds range     [1e+00, 1e+00]
  RHS range        [1e+00, 1e+00]
Presolve removed 9 rows and 0 columns

Continuous model is non-convex -- solving as a MIP.

Presolve removed 9 rows and 0 columns
Presolve time: 0.00s
Presolved: 189 rows, 57 columns, 443 nonzeros
Presolved model has 47 bilinear constraint(s)
Variable types: 57 continuous, 0 integer (0 binary)

Root relaxation: objective -1.743721e+00, 44 iterations, 0.00 seconds

    Nodes    |    Current Node    |     Objective Bounds      |     Work
 Expl Unexpl |  Obj  Depth IntInf | Incumbent    BestBd   Gap | It/Node Time

     0     0   -1.74372    0   38          -   -1.74372      -     -    0s
H    0     0                       0.6147548   -1.74372   384%     -    0s
     0     0   -1.64739    0    1    0.61475   -1.64739   368%     -    0s
H    0     0                      -1.6450460   -1.64739  0.14%     -    0s
     0     0     cutoff    0        -1.64505   -1.64505  0.00%     -    0s

Cutting planes:
  RLT: 25
  BQP: 3

Explored 1 nodes (76 simplex iterations) in 0.01 seconds
Thread count was 32 (of 72 available processors)

Solution count 2: -1.64505 0.614755 
No other solutions better than -1.64505

Optimal solution found (tolerance 1.00e-04)
Best objective -1.645045978473e+00, best bound -1.645045978473e+00, gap 0.0000%

User-callback calls 78, time in user-callback 0.00 sec
Gurobi Optimizer version 9.1.2 build v9.1.2rc0 (linux64)
Thread count: 36 physical cores, 72 logical processors, using up to 32 threads
Optimize a model with 24 rows, 125 columns and 2580 nonzeros
Model fingerprint: 0x3caa7281
Model has 105 quadratic constraints
Coefficient statistics:
  Matrix range     [4e-06, 5e+01]
  QMatrix range    [1e+00, 1e+00]
  QLMatrix range   [1e+00, 1e+00]
  Objective range  [8e-03, 9e-01]
  Bounds range     [1e+00, 1e+00]
  RHS range        [1e+00, 1e+00]
Presolve removed 9 rows and 0 columns

Continuous model is non-convex -- solving as a MIP.

Presolve removed 9 rows and 0 columns
Presolve time: 0.00s
Presolved: 430 rows, 125 columns, 2266 nonzeros
Presolved model has 105 bilinear constraint(s)
Variable types: 125 continuous, 0 integer (0 binary)

Root relaxation: objective -3.713251e+00, 120 iterations, 0.00 seconds

    Nodes    |    Current Node    |     Objective Bounds      |     Work
 Expl Unexpl |  Obj  Depth IntInf | Incumbent    BestBd   Gap | It/Node Time

     0     0   -3.71325    0   95          -   -3.71325      -     -    0s
H    0     0                       0.0921302   -3.71325  4130%     -    0s
     0     0   -3.07863    0   95    0.09213   -3.07863  3442%     -    0s
H    0     0                      -1.4780678   -3.07863   108%     -    0s
     0     0   -3.06085    0   62   -1.47807   -3.06085   107%     -    0s
     0     0   -2.99989    0   52   -1.47807   -2.99989   103%     -    0s
     0     0   -2.98001    0   72   -1.47807   -2.98001   102%     -    0s
     0     0   -2.93057    0   87   -1.47807   -2.93057  98.3%     -    0s
     0     0   -2.92870    0   52   -1.47807   -2.92870  98.1%     -    0s
     0     0   -2.92461    0   87   -1.47807   -2.92461  97.9%     -    0s
     0     0   -2.92396    0   52   -1.47807   -2.92396  97.8%     -    0s
     0     0   -2.91717    0   88   -1.47807   -2.91717  97.4%     -    0s
     0     0   -2.91658    0   52   -1.47807   -2.91658  97.3%     -    0s
     0     0   -2.91540    0   62   -1.47807   -2.91540  97.2%     -    0s
     0     0   -2.91497    0   62   -1.47807   -2.91497  97.2%     -    0s
H    0     0                      -1.8797022   -2.91497  55.1%     -    0s
H    0     0                      -1.9183336   -2.91497  52.0%     -    0s
H    0     0                      -1.9311073   -2.91497  50.9%     -    0s
     0     2   -2.91497    0   62   -1.93111   -2.91497  50.9%     -    0s
*  839   804              27      -1.9392642   -2.62712  35.5%  25.3    0s
*  904   968              36      -2.2253599   -2.62712  18.1%  24.4    0s
*  976   968              21      -2.4929733   -2.62712  5.38%  23.2    0s
* 1382   668              15      -2.4967485   -2.54231  1.83%  18.3    0s
* 1390   668              17      -2.4983413   -2.54231  1.76%  18.2    0s
* 1563   675              24      -2.4988817   -2.54231  1.74%  16.5    0s
* 1570   675              18      -2.5054705   -2.54231  1.47%  16.4    0s
* 1571   675              18      -2.5054730   -2.54231  1.47%  16.4    0s
* 1606   675              16      -2.5062315   -2.54231  1.44%  16.2    0s
* 1661   675              17      -2.5063553   -2.54231  1.43%  15.8    0s
* 1872   533              22      -2.5114587   -2.53446  0.92%  14.3    0s
* 1887   533              18      -2.5146087   -2.53446  0.79%  14.2    0s
* 2242   301              25      -2.5158776   -2.53446  0.74%  12.5    0s
* 2301   301              20      -2.5164817   -2.53446  0.71%  12.4    0s
* 2373   301              19      -2.5182718   -2.53446  0.64%  12.1    0s
* 2694   191              21      -2.5182775   -2.52303  0.19%  10.8    0s
* 2704   191              19      -2.5196507   -2.52303  0.13%  10.8    0s
* 2732   191              17      -2.5202690   -2.52135  0.04%  10.7    0s
* 2739   191              23      -2.5202699   -2.52135  0.04%  10.7    0s
* 3075    11              16      -2.5204515   -2.52077  0.01%   9.9    0s
* 3076    11              16      -2.5204594   -2.52077  0.01%   9.9    0s
* 3086    11              19      -2.5205042   -2.52077  0.01%   9.8    0s

Cutting planes:
  RLT: 54
  BQP: 10
  PSD: 46

Explored 3274 nodes (30853 simplex iterations) in 0.74 seconds
Thread count was 32 (of 72 available processors)

Solution count 10: -2.5205 -2.52046 -2.52045 ... -2.51461

Optimal solution found (tolerance 1.00e-04)
Best objective -2.520504182038e+00, best bound -2.520548845829e+00, gap 0.0018%

User-callback calls 6837, time in user-callback 0.00 sec



objective value: -2.520504182038327
objective bound: -2.520548845829007
x_opt: [0.0, 0.0, 1.0, 0.0, 1.0, 0.6715154539646093, 1.0, 1.0, 1.0, 0.0, 0.0, 0.1978498252707471, 2.782157061316649e-5, 0.0, 0.0, 0.4940500806831672, 0.0, 0.0, 0.005530896144957566, 0.0]
GUROBI solution time: 0.7401201725006104




